sat
(:max-memory         18.05
 :memory             18.05
 :nlsat-propagations 4
 :nlsat-stages       4
 :num-allocs         24087
 :rlimit-count       3312
 :time               0.00
 :total-time         0.02)
